37873 40753 
36626 41156 
36576 41159 
38660 40563 
37825 40769 
37522 40949 
38157 40639 
36836 41048 
36786 41051 
37287 40961 
33876 41426 
38006 40705 
38425 40575 
38213 40608 
34706 41352 
34764 41348 
35612 41266 
35564 41282 
35274 41320 
34874 41334 
34370 41386 
33979 41402 
34428 41382 
35780 41248 
35928 41178 
33643 41436 
34491 41354 
